6 6
6 1 2 1 1 0 3 2 1 6 2 6 2 3 7 0 7 2 5 3 1 3 2 4 6 3 6
6 3 1 8 5 8 0 8 3 2 5 1 5 4 5 3 4 10 2 10 1 10 2 5 10 4 10 2 0 10 1 10 2 3 4 5 4
6 3 2 5 1 5 3 5 2 3 4 4 4 1 5 8 1 0 9 3 1 1 4 1 2 1 3 4 7 3 7 5 7
6 1 1 5 3 0 5 1 5 3 5 1 2 5 2 3 3 5 3 1 4 8 1 5 9
6 3 2 9 1 9 3 9 2 1 3 5 3 3 4 5 3 5 1 5 1 5 4 3 0 3 3 3 1 3 1 3 1
6 3 1 3 3 3 2 3 2 3 3 4 3 1 5 9 3 0 10 3 10 1 10 3 4 4 3 4 2 4 2 2 1 4 1
